10
12
3 1 2 0
3 2 3 1
3 4 0 3
3 5 1 3
3 6 0 3
3 7 1 2
3 8 0 3
3 9 2 1
3 0 0 2
1 9 2 1
1 4 1 3
1 5 1 2
1 6 1 3
1 7 0 3
1 8 0 3
1 2 3 1
1 0 0 2
2 9 3 0
2 4 1 2
2 5 0 3
2 6 0 2
2 7 0 3
2 8 0 2
2 0 1 3
4 0 3 0
4 5 0 3
4 6 0 2
4 7 0 2
4 9 0 2
4 8 3 1
5 8 0 3
5 9 1 3
5 7 2 0
5 6 2 1
5 0 0 3
6 7 3 0
6 8 0 3
6 9 1 2
6 0 0 3
7 8 1 3
7 9 1 2
7 0 1 3
8 0 2 0
8 9 0 3
9 0 1 2